\ENCODING=ISO-8859-1
\Problem name: 

Maximize
 obj: - a0 + a1 + a2 + a3 + a5 + a6 + a9 + a10 + a11 + a13 + a15 + a17 + a18
      + a19 + a22 + a25 + a27 + a28 + a29 + a31 + a32 + a36 + a38 + a39 + a40
      + a41 + a44 + a48 + a50 + a51 + a52 + a53 + a54 + a55 + a56 + a58 + a60
      + a65 + a70 + a72 + a80 + a84 + a87 + a96 + a98 + a102 + a103 + a108
      + a116 + a121 + a124 + a125 + a130 + a139 + a142 + a146 + a147 + a150
      + a154 + a169 + a173
Subject To
 c1:   - a0 - f0 + u1 - u2 + u3 - u4 + u5 - u6 + u7 - u8 + u9 - u10 + u11 - u12
       + u13 - u14 + u15 - u16 + u17 - u18 + u19 - u20 + u21 - u22 + u23 - u24
       + u25 - u26 + u27 - u28 + u29 - u30 + u31 - u32 + u33 - u34 + u35 - u36
       + u37 - u38 + u39 - u40 + u41 - u42 + u43 - u44 + u45 - u46 + u47 - u48
       + u49 - u50 + u51 - u52 + u53 - u54 + u55 - u56 + u57 - u58 + u59 - u60
       + u61 - u62 + u63 - u64 + u65 - u66 + u67 - u68 + u69 - u70 + u71 - u72
       + u73 - u74 + u75 - u76 + u77 - u78 + u79 - u80 + u81 - u82 + u83 - u84
       + u85 - u86 + u87 - u88 + u89 - u90 + u91 - u92 + u93 - u94 + u95 - u96
       + u97 - u98 + u99 - u100 + u101 - u102 + u103 - u104 + u105 - u106
       + u107 - u108 + u109 - u110 + u111 - u112 + u113 - u114 + u115 - u116
       + u117 - u118 + u119 - u120 + u121 - u122 + u123 - u124 + u125 - u126
       + u127 - u128 + u129 - u130 + u131 - u132 + u133 - u134 + u135 - u136
       + u137 - u138 + u139 - u140 + u141 - u142 + u143 - u144 + u145 - u146
       + u147 - u148 + u149 - u150 + u151 - u152 + u153 - u154 + u155 - u156
       + u157 - u158 + u159 - u160 + u161 - u162 + u163 - u164 + 2 u165
       - 2 u166 + 2 u167 - 2 u168 + 2 u169 - 2 u170 + 2 u171 - 2 u172 + 2 u173
       - 2 u174 + 2 u175 - 2 u176 + 2 u177 - 2 u178 + 2 u179 - 2 u180 + 2 u181
       - 2 u182 + 2 u183 - 2 u184 + 2 u185 - 2 u186 + 2 u187 - 2 u188 + 2 u189
       - 2 u190 + 2 u191 - 2 u192 + 2 u193 - 2 u194 + 2 u195 - 2 u196 + 2 u197
       - 2 u198 + 2 u199 - 2 u200 + 2 u201 - 2 u202 + 2 u203 - 2 u204 + 2 u205
       - 2 u206 + 2 u207 - 2 u208 + 2 u209 - 2 u210 + 2 u211 - 2 u212 + 2 u213
       - 2 u214 + 2 u215 - 2 u216 + 2 u217 - 2 u218 + 2 u219 - 2 u220 + 2 u221
       - 2 u222 + 2 u223 - 2 u224 + 2 u225 - 2 u226 + 2 u227 - 2 u228 + 2 u229
       - 2 u230 + 2 u231 - 2 u232 + 2 u233 - 2 u234 + 2 u235 - 2 u236
       - 153 u237 - 7 u238 - 9 u239 - 437 u240  = 0
 c2:   - a1 - f1 + u165 - u166 + u167 - u168  = 0
 c3:   - a2 - f2 + u1 - u2 + u167 - u168 + u169 - u170  = 0
 c4:   - a3 - f3 + u3 - u4 + u169 - u170 + u171 - u172  = 0
 c5:   - a5 - f5 + u7 - u8 + u173 - u174 + u175 - u176  = 0
 c6:   - a6 - f6 + u165 - u166 + u177 - u178  = 0
 c7:   - a9 - f9 + u13 - u14 + u171 - u172 + u183 - u184  = 0
 c8:   - a10 - f10 + u15 - u16 + u173 - u174 + u185 - u186  = 0
 c9:   - a11 - f11 + u17 - u18 + u175 - u176 + u187 - u188  = 0
 c10:  - a13 - f13 + u21 - u22 + u179 - u180 + u181 - u182  = 0
 c11:  - a15 - f15 + u25 - u26 + u183 - u184 + u185 - u186  = 0
 c12:  - a17 - f17 + u29 - u30 + u177 - u178 + u189 - u190  = 0
 c13:  - a18 - f18 + u31 - u32 + u179 - u180 + u191 - u192  = 0
 c14:  - a19 - f19 + u33 - u34 + u181 - u182 + u193 - u194  = 0
 c15:  - a22 - f22 + u39 - u40 + u187 - u188 + u199 - u200  = 0
 c16:  - a25 - f25 + u45 - u46 + u193 - u194 + u195 - u196  = 0
 c17:  - a27 - f27 + u49 - u50 + u197 - u198 + u199 - u200  = 0
 c18:  - a28 - f28 + u51 - u52 + u189 - u190 + u201 - u202  = 0
 c19:  - a29 - f29 + u53 - u54 + u191 - u192 + u203 - u204  = 0
 c20:  - a31 - f31 + u57 - u58 + u195 - u196 + u207 - u208  = 0
 c21:  - a32 - f32 + u59 - u60 + u197 - u198 + u209 - u210  = 0
 c22:  - a36 - f36 + u67 - u68 + u205 - u206 + u207 - u208  = 0
 c23:  - a38 - f38 + u71 - u72 + u209 - u210 + u211 - u212  = 0
 c24:  - a39 - f39 + u73 - u74 + u201 - u202 + u213 - u214  = 0
 c25:  - a40 - f40 + u75 - u76 + u203 - u204 + u215 - u216  = 0
 c26:  - a41 - f41 + u77 - u78 + u205 - u206 + u217 - u218  = 0
 c27:  - a44 - f44 + u83 - u84 + u211 - u212 + u223 - u224  = 0
 c28:  - a48 - f48 + u91 - u92 + u219 - u220 + u221 - u222  = 0
 c29:  - a50 - f50 + u95 - u96 + u213 - u214 + u225 - u226  = 0
 c30:  - a51 - f51 + u97 - u98 + u215 - u216 + u227 - u228  = 0
 c31:  - a52 - f52 + u99 - u100 + u217 - u218 + u229 - u230  = 0
 c32:  - a53 - f53 + u101 - u102 + u219 - u220 + u231 - u232  = 0
 c33:  - a54 - f54 + u103 - u104 + u221 - u222 + u233 - u234  = 0
 c34:  - a55 - f55 + u105 - u106 + u223 - u224 + u235 - u236  = 0
 c35:  - a56 - f56 + u107 - u108 + u225 - u226 + u227 - u228  = 0
 c36:  - a58 - f58 + u111 - u112 + u229 - u230 + u231 - u232  = 0
 c37:  - a60 - f60 + u115 - u116 + u233 - u234 + u235 - u236  = 0
 c38:  - a65 - f65 + u5 - u6 + u121 - u122 - u238  = 0
 c39:  - a70 - f70 + u9 - u10 + u117 - u118  = 0
 c40:  - a72 - f72 + u11 - u12 + u119 - u120 - u237 - u238  = 0
 c41:  - a80 - f80 + u19 - u20 + u125 - u126 - 143 u237 - u238  = 0
 c42:  - a84 - f84 + u23 - u24 + u129 - u130 - 2 u237 - u240  = 0
 c43:  - a87 - f87 + u27 - u28 + u123 - u124 - u238 - u240  = 0
 c44:  - a96 - f96 + u35 - u36 + u131 - u132 - u237 - u240  = 0
 c45:  - a98 - f98 + u37 - u38 + u133 - u134 - u237 - u238 - 18 u240  = 0
 c46:  - a102 - f102 + u41 - u42 + u135 - u136  = 0
 c47:  - a103 - f103 + u43 - u44 + u127 - u128 - u239  = 0
 c48:  - a108 - f108 + u47 - u48 + u141 - u142 - u237 - u238 - 21 u240  = 0
 c49:  - a116 - f116 + u55 - u56 + u139 - u140  = 0
 c50:  - a121 - f121 + u61 - u62 + u143 - u144  = 0
 c51:  - a124 - f124 + u63 - u64 + u145 - u146  = 0
 c52:  - a125 - f125 + u65 - u66 + u137 - u138 - u239  = 0
 c53:  - a130 - f130 + u69 - u70 + u151 - u152 - u237 - u239  = 0
 c54:  - a139 - f139 + u79 - u80 + u149 - u150 - u240  = 0
 c55:  - a142 - f142 + u81 - u82 + u153 - u154 - u238 - u239  = 0
 c56:  - a146 - f146 + u85 - u86 + u155 - u156 - 44 u240  = 0
 c57:  - a147 - f147 + u87 - u88 + u147 - u148 - u237 - 4 u239  = 0
 c58:  - a150 - f150 + u89 - u90 + u159 - u160 - u237  = 0
 c59:  - a154 - f154 + u93 - u94 + u163 - u164  = 0
 c60:  - a169 - f169 + u109 - u110 + u157 - u158 - u237 - 350 u240  = 0
 c61:  - a173 - f173 + u113 - u114 + u161 - u162 - u239  = 0
 c62:  u165 - u166 + u167 - u168  = 0
 c63:  u1 - u2 + u167 - u168 + u169 - u170  = 0
 c64:  u3 - u4 + u169 - u170 + u171 - u172  = 0
 c65:  u5 - u6 + u171 - u172 + u173 - u174  = 0
 c66:  u7 - u8 + u173 - u174 + u175 - u176  = 0
 c67:  u165 - u166 + u177 - u178  = 0
 c68:  u9 - u10 + u167 - u168 + u179 - u180  = 0
 c69:  u11 - u12 + u169 - u170 + u181 - u182  = 0
 c70:  u13 - u14 + u171 - u172 + u183 - u184  = 0
 c71:  u15 - u16 + u173 - u174 + u185 - u186  = 0
 c72:  u17 - u18 + u175 - u176 + u187 - u188  = 0
 c73:  u19 - u20 + u177 - u178 + u179 - u180  = 0
 c74:  u21 - u22 + u179 - u180 + u181 - u182  = 0
 c75:  u23 - u24 + u181 - u182 + u183 - u184  = 0
 c76:  u25 - u26 + u183 - u184 + u185 - u186  = 0
 c77:  u27 - u28 + u185 - u186 + u187 - u188  = 0
 c78:  u29 - u30 + u177 - u178 + u189 - u190  = 0
 c79:  u31 - u32 + u179 - u180 + u191 - u192  = 0
 c80:  u33 - u34 + u181 - u182 + u193 - u194  = 0
 c81:  u35 - u36 + u183 - u184 + u195 - u196  = 0
 c82:  u37 - u38 + u185 - u186 + u197 - u198  = 0
 c83:  u39 - u40 + u187 - u188 + u199 - u200  = 0
 c84:  u41 - u42 + u189 - u190 + u191 - u192  = 0
 c85:  u43 - u44 + u191 - u192 + u193 - u194  = 0
 c86:  u45 - u46 + u193 - u194 + u195 - u196  = 0
 c87:  u47 - u48 + u195 - u196 + u197 - u198  = 0
 c88:  u49 - u50 + u197 - u198 + u199 - u200  = 0
 c89:  u51 - u52 + u189 - u190 + u201 - u202  = 0
 c90:  u53 - u54 + u191 - u192 + u203 - u204  = 0
 c91:  u55 - u56 + u193 - u194 + u205 - u206  = 0
 c92:  u57 - u58 + u195 - u196 + u207 - u208  = 0
 c93:  u59 - u60 + u197 - u198 + u209 - u210  = 0
 c94:  u61 - u62 + u199 - u200 + u211 - u212  = 0
 c95:  u63 - u64 + u201 - u202 + u203 - u204  = 0
 c96:  u65 - u66 + u203 - u204 + u205 - u206  = 0
 c97:  u67 - u68 + u205 - u206 + u207 - u208  = 0
 c98:  u69 - u70 + u207 - u208 + u209 - u210  = 0
 c99:  u71 - u72 + u209 - u210 + u211 - u212  = 0
 c100: u73 - u74 + u201 - u202 + u213 - u214  = 0
 c101: u75 - u76 + u203 - u204 + u215 - u216  = 0
 c102: u77 - u78 + u205 - u206 + u217 - u218  = 0
 c103: u79 - u80 + u207 - u208 + u219 - u220  = 0
 c104: u81 - u82 + u209 - u210 + u221 - u222  = 0
 c105: u83 - u84 + u211 - u212 + u223 - u224  = 0
 c106: u85 - u86 + u213 - u214 + u215 - u216  = 0
 c107: u87 - u88 + u215 - u216 + u217 - u218  = 0
 c108: u89 - u90 + u217 - u218 + u219 - u220  = 0
 c109: u91 - u92 + u219 - u220 + u221 - u222  = 0
 c110: u93 - u94 + u221 - u222 + u223 - u224  = 0
 c111: u95 - u96 + u213 - u214 + u225 - u226  = 0
 c112: u97 - u98 + u215 - u216 + u227 - u228  = 0
 c113: u99 - u100 + u217 - u218 + u229 - u230  = 0
 c114: u101 - u102 + u219 - u220 + u231 - u232  = 0
 c115: u103 - u104 + u221 - u222 + u233 - u234  = 0
 c116: u105 - u106 + u223 - u224 + u235 - u236  = 0
 c117: u107 - u108 + u225 - u226 + u227 - u228  = 0
 c118: u109 - u110 + u227 - u228 + u229 - u230  = 0
 c119: u111 - u112 + u229 - u230 + u231 - u232  = 0
 c120: u113 - u114 + u231 - u232 + u233 - u234  = 0
 c121: u115 - u116 + u233 - u234 + u235 - u236  = 0
 c122: u1 - u2 + u117 - u118 - u237 <= 0
 c123: u1 - u2 - u237 <= 0
 c124: u3 - u4 + u119 - u120 - u238 - u240 <= 0
 c125: u3 - u4 - 2 u238 - u240 <= 0
 c126: u5 - u6 + u121 - u122 - u238 <= 0
 c127: u5 - u6 - u237 - u238 - u240 <= 0
 c128: u7 - u8 + u123 - u124 - u237 - u238 <= 0
 c129: u7 - u8 - 2 u237 - u239 - u240 <= 0
 c130: u9 - u10 <= 0
 c131: u9 - u10 + u117 - u118 <= 0
 c132: u11 - u12 + u117 - u118 - u237 - 2 u238 <= 0
 c133: u11 - u12 + u119 - u120 - u237 - u238 <= 0
 c134: u13 - u14 + u119 - u120 - u237 - u240 <= 0
 c135: u13 - u14 + u121 - u122 - u238 <= 0
 c136: u15 - u16 + u121 - u122 - u237 - u238 - u239 <= 0
 c137: u15 - u16 + u123 - u124 - u237 - u238 <= 0
 c138: u17 - u18 + u123 - u124 - u238 - u240 <= 0
 c139: u17 - u18 - u237 - u239 - 2 u240 <= 0
 c140: u19 - u20 <= 0
 c141: u19 - u20 + u125 - u126 - 143 u237 - u238 <= 0
 c142: u21 - u22 + u117 - u118 - 2 u238 <= 0
 c143: u21 - u22 + u127 - u128 - u239 <= 0
 c144: u23 - u24 + u119 - u120 - 2 u237 - u240 <= 0
 c145: u23 - u24 + u129 - u130 - 2 u237 - u240 <= 0
 c146: u25 - u26 + u121 - u122 - u237 - u238 - u239 <= 0
 c147: u25 - u26 + u131 - u132 - u237 <= 0
 c148: u27 - u28 + u123 - u124 - u238 - u240 <= 0
 c149: u27 - u28 + u133 - u134 - u238 - u240 <= 0
 c150: u29 - u30 + u125 - u126 - 143 u237 - u238 <= 0
 c151: u29 - u30 <= 0
 c152: u31 - u32 + u125 - u126 - 143 u237 - 3 u238 <= 0
 c153: u31 - u32 + u127 - u128 - u239 <= 0
 c154: u33 - u34 + u127 - u128 - u239 <= 0
 c155: u33 - u34 + u129 - u130 - u238 - u240 <= 0
 c156: u35 - u36 + u129 - u130 - 2 u237 - u239 - 2 u240 <= 0
 c157: u35 - u36 + u131 - u132 - u237 - u240 <= 0
 c158: u37 - u38 + u131 - u132 - u238 - 19 u240 <= 0
 c159: u37 - u38 + u133 - u134 - u237 - u238 - 18 u240 <= 0
 c160: u39 - u40 + u133 - u134 <= 0
 c161: u39 - u40 - u237 - u239 - 2 u240 <= 0
 c162: u41 - u42 + u125 - u126 - 143 u237 - 3 u238 <= 0
 c163: u41 - u42 + u135 - u136 <= 0
 c164: u43 - u44 + u127 - u128 - u239 <= 0
 c165: u43 - u44 + u137 - u138 - u239 <= 0
 c166: u45 - u46 + u129 - u130 - u238 - u239 - 2 u240 <= 0
 c167: u45 - u46 + u139 - u140 - u240 <= 0
 c168: u47 - u48 + u131 - u132 - u237 - u238 - 19 u240 <= 0
 c169: u47 - u48 + u141 - u142 - u237 - u238 - 21 u240 <= 0
 c170: u49 - u50 + u133 - u134 - u237 - u238 - 18 u240 <= 0
 c171: u49 - u50 + u143 - u144 - 17 u240 <= 0
 c172: u51 - u52 + u135 - u136 <= 0
 c173: u51 - u52 - 2 u238 <= 0
 c174: u53 - u54 + u135 - u136 <= 0
 c175: u53 - u54 + u137 - u138 - u239 <= 0
 c176: u55 - u56 + u137 - u138 - u239 <= 0
 c177: u55 - u56 + u139 - u140 <= 0
 c178: u57 - u58 + u139 - u140 - u237 - 2 u240 <= 0
 c179: u57 - u58 + u141 - u142 - u237 - 2 u238 - 3 u240 <= 0
 c180: u59 - u60 + u141 - u142 - u237 - u238 - 20 u240 <= 0
 c181: u59 - u60 + u143 - u144 - 17 u240 <= 0
 c182: u61 - u62 + u143 - u144 <= 0
 c183: u61 - u62 - u237 - u238 - u239 - 2 u240 <= 0
 c184: u63 - u64 + u135 - u136 <= 0
 c185: u63 - u64 + u145 - u146 <= 0
 c186: u65 - u66 + u137 - u138 - u239 <= 0
 c187: u65 - u66 + u147 - u148 <= 0
 c188: u67 - u68 + u139 - u140 - u237 - u240 <= 0
 c189: u67 - u68 + u149 - u150 - u240 <= 0
 c190: u69 - u70 + u141 - u142 - u238 - u240 <= 0
 c191: u69 - u70 + u151 - u152 - u237 - u239 <= 0
 c192: u71 - u72 + u143 - u144 <= 0
 c193: u71 - u72 + u153 - u154 - u239 <= 0
 c194: u73 - u74 + u145 - u146 - 44 u240 <= 0
 c195: u73 - u74 - 2 u238 - 44 u240 <= 0
 c196: u75 - u76 + u145 - u146 - 5 u239 <= 0
 c197: u75 - u76 + u147 - u148 - 4 u239 <= 0
 c198: u77 - u78 + u147 - u148 - u237 <= 0
 c199: u77 - u78 + u149 - u150 - u240 <= 0
 c200: u79 - u80 + u149 - u150 - u240 <= 0
 c201: u79 - u80 + u151 - u152 - 2 u237 - u238 - u239 <= 0
 c202: u81 - u82 + u151 - u152 - 2 u237 - u239 - 2 u240 <= 0
 c203: u81 - u82 + u153 - u154 - u238 - u239 <= 0
 c204: u83 - u84 + u153 - u154 - u238 - u239 <= 0
 c205: u83 - u84 - u237 - u238 - 2 u240 <= 0
 c206: u85 - u86 + u145 - u146 - 5 u239 - 44 u240 <= 0
 c207: u85 - u86 + u155 - u156 - 44 u240 <= 0
 c208: u87 - u88 + u147 - u148 - u237 - 4 u239 <= 0
 c209: u87 - u88 + u157 - u158 - 2 u237 - 4 u239 <= 0
 c210: u89 - u90 + u149 - u150 <= 0
 c211: u89 - u90 + u159 - u160 - u237 <= 0
 c212: u91 - u92 + u151 - u152 - 2 u237 - u238 - u239 - 2 u240 <= 0
 c213: u91 - u92 + u161 - u162 - u237 - u239 <= 0
 c214: u93 - u94 + u153 - u154 - u238 <= 0
 c215: u93 - u94 + u163 - u164 <= 0
 c216: u95 - u96 + u155 - u156 <= 0
 c217: u95 - u96 - 2 u238 - 5 u239 <= 0
 c218: u97 - u98 + u155 - u156 - 350 u240 <= 0
 c219: u97 - u98 + u157 - u158 - u237 - 4 u239 - 350 u240 <= 0
 c220: u99 - u100 + u157 - u158 - 2 u237 <= 0
 c221: u99 - u100 + u159 - u160 - u237 - u240 <= 0
 c222: u101 - u102 + u159 - u160 - u237 - 2 u240 <= 0
 c223: u101 - u102 + u161 - u162 - u237 - 2 u239 <= 0
 c224: u103 - u104 + u161 - u162 - u237 - u239 <= 0
 c225: u103 - u104 + u163 - u164 <= 0
 c226: u105 - u106 + u163 - u164 - u239 <= 0
 c227: u105 - u106 - u237 - 2 u238 - 2 u240 <= 0
 c228: u107 - u108 + u155 - u156 - 306 u240 <= 0
 c229: u107 - u108 - 2 u238 - 5 u239 - 306 u240 <= 0
 c230: u109 - u110 + u157 - u158 - u237 - 350 u240 <= 0
 c231: u109 - u110 - 2 u238 - u239 - 350 u240 <= 0
 c232: u111 - u112 + u159 - u160 - u237 - 3 u240 <= 0
 c233: u111 - u112 - u237 - 2 u238 - u239 - 2 u240 <= 0
 c234: u113 - u114 + u161 - u162 - u239 <= 0
 c235: u113 - u114 - u237 - 2 u238 - 2 u240 <= 0
 c236: u115 - u116 + u163 - u164 - u239 <= 0
 c237: u115 - u116 - u237 - 2 u238 - 2 u240 <= 0
 c238: u237 + u238 + u239 + u240  = 0
Bounds
      a0 Free
      a1 Free
      a2 Free
      a3 Free
      a5 Free
      a6 Free
      a9 Free
      a10 Free
      a11 Free
      a13 Free
      a15 Free
      a17 Free
      a18 Free
      a19 Free
      a22 Free
      a25 Free
      a27 Free
      a28 Free
      a29 Free
      a31 Free
      a32 Free
      a36 Free
      a38 Free
      a39 Free
      a40 Free
      a41 Free
      a44 Free
      a48 Free
      a50 Free
      a51 Free
      a52 Free
      a53 Free
      a54 Free
      a55 Free
      a56 Free
      a58 Free
      a60 Free
      a65 Free
      a70 Free
      a72 Free
      a80 Free
      a84 Free
      a87 Free
      a96 Free
      a98 Free
      a102 Free
      a103 Free
      a108 Free
      a116 Free
      a121 Free
      a124 Free
      a125 Free
      a130 Free
      a139 Free
      a142 Free
      a146 Free
      a147 Free
      a150 Free
      a154 Free
      a169 Free
      a173 Free
 0 <= f0 <= 0.99
 0 <= f1 <= 0.99
 0 <= f2 <= 0.99
 0 <= f3 <= 0.99
 0 <= f5 <= 0.99
 0 <= f6 <= 0.99
 0 <= f9 <= 0.99
 0 <= f10 <= 0.99
 0 <= f11 <= 0.99
 0 <= f13 <= 0.99
 0 <= f15 <= 0.99
 0 <= f17 <= 0.99
 0 <= f18 <= 0.99
 0 <= f19 <= 0.99
 0 <= f22 <= 0.99
 0 <= f25 <= 0.99
 0 <= f27 <= 0.99
 0 <= f28 <= 0.99
 0 <= f29 <= 0.99
 0 <= f31 <= 0.99
 0 <= f32 <= 0.99
 0 <= f36 <= 0.99
 0 <= f38 <= 0.99
 0 <= f39 <= 0.99
 0 <= f40 <= 0.99
 0 <= f41 <= 0.99
 0 <= f44 <= 0.99
 0 <= f48 <= 0.99
 0 <= f50 <= 0.99
 0 <= f51 <= 0.99
 0 <= f52 <= 0.99
 0 <= f53 <= 0.99
 0 <= f54 <= 0.99
 0 <= f55 <= 0.99
 0 <= f56 <= 0.99
 0 <= f58 <= 0.99
 0 <= f60 <= 0.99
 0 <= f65 <= 0.99
 0 <= f70 <= 0.99
 0 <= f72 <= 0.99
 0 <= f80 <= 0.99
 0 <= f84 <= 0.99
 0 <= f87 <= 0.99
 0 <= f96 <= 0.99
 0 <= f98 <= 0.99
 0 <= f102 <= 0.99
 0 <= f103 <= 0.99
 0 <= f108 <= 0.99
 0 <= f116 <= 0.99
 0 <= f121 <= 0.99
 0 <= f124 <= 0.99
 0 <= f125 <= 0.99
 0 <= f130 <= 0.99
 0 <= f139 <= 0.99
 0 <= f142 <= 0.99
 0 <= f146 <= 0.99
 0 <= f147 <= 0.99
 0 <= f150 <= 0.99
 0 <= f154 <= 0.99
 0 <= f169 <= 0.99
 0 <= f173 <= 0.99
Generals
 a0  a1  a2  a3  a5  a6  a9  a10  a11  a13  a15  a17  a18  a19  a22  a25  a27 
 a28  a29  a31  a32  a36  a38  a39  a40  a41  a44  a48  a50  a51  a52  a53 
 a54  a55  a56  a58  a60  a65  a70  a72  a80  a84  a87  a96  a98  a102  a103 
 a108  a116  a121  a124  a125  a130  a139  a142  a146  a147  a150  a154  a169 
 a173 
End
